(set-logic QF_LRA)
(declare-fun X0 () Real )
(declare-fun Y0 () Real )
(declare-fun X1 () Real )
(declare-fun Y1 () Real )
(declare-fun X2 () Real )
(declare-fun Y2 () Real )
(declare-fun X3 () Real )
(declare-fun Y3 () Real )
(declare-fun X4 () Real )
(declare-fun Y4 () Real )
(declare-fun X5 () Real )
(declare-fun Y5 () Real )
(declare-fun X6 () Real )
(declare-fun Y6 () Real )
(declare-fun X7 () Real )
(declare-fun Y7 () Real )
(declare-fun X8 () Real )
(declare-fun Y8 () Real )
(declare-fun Z () Real )
(declare-fun k () Real )
(assert (let
(( $goal (>= Z k) ))
(let
((
$phi ( and 
( or ( <= ( + X0 100 ) X1 )  ( <= ( + X1 100 ) X0 )  ( <= ( + Y0 65 ) Y1 )  ( <= ( + Y1 70 ) Y0 )  )
( or ( <= ( + X0 100 ) X2 )  ( <= ( + X2 25 ) X0 )  ( <= ( + Y0 65 ) Y2 )  ( <= ( + Y2 67 ) Y0 )  )
( or ( <= ( + X0 100 ) X3 )  ( <= ( + X3 98 ) X0 )  ( <= ( + Y0 65 ) Y3 )  ( <= ( + Y3 94 ) Y0 )  )
( or ( <= ( + X0 100 ) X4 )  ( <= ( + X4 3 ) X0 )  ( <= ( + Y0 65 ) Y4 )  ( <= ( + Y4 89 ) Y0 )  )
( or ( <= ( + X0 100 ) X5 )  ( <= ( + X5 31 ) X0 )  ( <= ( + Y0 65 ) Y5 )  ( <= ( + Y5 60 ) Y0 )  )
( or ( <= ( + X0 100 ) X6 )  ( <= ( + X6 55 ) X0 )  ( <= ( + Y0 65 ) Y6 )  ( <= ( + Y6 48 ) Y0 )  )
( or ( <= ( + X0 100 ) X7 )  ( <= ( + X7 11 ) X0 )  ( <= ( + Y0 65 ) Y7 )  ( <= ( + Y7 54 ) Y0 )  )
( or ( <= ( + X0 100 ) X8 )  ( <= ( + X8 14 ) X0 )  ( <= ( + Y0 65 ) Y8 )  ( <= ( + Y8 61 ) Y0 )  )
( or ( <= ( + X1 100 ) X2 )  ( <= ( + X2 25 ) X1 )  ( <= ( + Y1 70 ) Y2 )  ( <= ( + Y2 67 ) Y1 )  )
( or ( <= ( + X1 100 ) X3 )  ( <= ( + X3 98 ) X1 )  ( <= ( + Y1 70 ) Y3 )  ( <= ( + Y3 94 ) Y1 )  )
( or ( <= ( + X1 100 ) X4 )  ( <= ( + X4 3 ) X1 )  ( <= ( + Y1 70 ) Y4 )  ( <= ( + Y4 89 ) Y1 )  )
( or ( <= ( + X1 100 ) X5 )  ( <= ( + X5 31 ) X1 )  ( <= ( + Y1 70 ) Y5 )  ( <= ( + Y5 60 ) Y1 )  )
( or ( <= ( + X1 100 ) X6 )  ( <= ( + X6 55 ) X1 )  ( <= ( + Y1 70 ) Y6 )  ( <= ( + Y6 48 ) Y1 )  )
( or ( <= ( + X1 100 ) X7 )  ( <= ( + X7 11 ) X1 )  ( <= ( + Y1 70 ) Y7 )  ( <= ( + Y7 54 ) Y1 )  )
( or ( <= ( + X1 100 ) X8 )  ( <= ( + X8 14 ) X1 )  ( <= ( + Y1 70 ) Y8 )  ( <= ( + Y8 61 ) Y1 )  )
( or ( <= ( + X2 25 ) X3 )  ( <= ( + X3 98 ) X2 )  ( <= ( + Y2 67 ) Y3 )  ( <= ( + Y3 94 ) Y2 )  )
( or ( <= ( + X2 25 ) X4 )  ( <= ( + X4 3 ) X2 )  ( <= ( + Y2 67 ) Y4 )  ( <= ( + Y4 89 ) Y2 )  )
( or ( <= ( + X2 25 ) X5 )  ( <= ( + X5 31 ) X2 )  ( <= ( + Y2 67 ) Y5 )  ( <= ( + Y5 60 ) Y2 )  )
( or ( <= ( + X2 25 ) X6 )  ( <= ( + X6 55 ) X2 )  ( <= ( + Y2 67 ) Y6 )  ( <= ( + Y6 48 ) Y2 )  )
( or ( <= ( + X2 25 ) X7 )  ( <= ( + X7 11 ) X2 )  ( <= ( + Y2 67 ) Y7 )  ( <= ( + Y7 54 ) Y2 )  )
( or ( <= ( + X2 25 ) X8 )  ( <= ( + X8 14 ) X2 )  ( <= ( + Y2 67 ) Y8 )  ( <= ( + Y8 61 ) Y2 )  )
( or ( <= ( + X3 98 ) X4 )  ( <= ( + X4 3 ) X3 )  ( <= ( + Y3 94 ) Y4 )  ( <= ( + Y4 89 ) Y3 )  )
( or ( <= ( + X3 98 ) X5 )  ( <= ( + X5 31 ) X3 )  ( <= ( + Y3 94 ) Y5 )  ( <= ( + Y5 60 ) Y3 )  )
( or ( <= ( + X3 98 ) X6 )  ( <= ( + X6 55 ) X3 )  ( <= ( + Y3 94 ) Y6 )  ( <= ( + Y6 48 ) Y3 )  )
( or ( <= ( + X3 98 ) X7 )  ( <= ( + X7 11 ) X3 )  ( <= ( + Y3 94 ) Y7 )  ( <= ( + Y7 54 ) Y3 )  )
( or ( <= ( + X3 98 ) X8 )  ( <= ( + X8 14 ) X3 )  ( <= ( + Y3 94 ) Y8 )  ( <= ( + Y8 61 ) Y3 )  )
( or ( <= ( + X4 3 ) X5 )  ( <= ( + X5 31 ) X4 )  ( <= ( + Y4 89 ) Y5 )  ( <= ( + Y5 60 ) Y4 )  )
( or ( <= ( + X4 3 ) X6 )  ( <= ( + X6 55 ) X4 )  ( <= ( + Y4 89 ) Y6 )  ( <= ( + Y6 48 ) Y4 )  )
( or ( <= ( + X4 3 ) X7 )  ( <= ( + X7 11 ) X4 )  ( <= ( + Y4 89 ) Y7 )  ( <= ( + Y7 54 ) Y4 )  )
( or ( <= ( + X4 3 ) X8 )  ( <= ( + X8 14 ) X4 )  ( <= ( + Y4 89 ) Y8 )  ( <= ( + Y8 61 ) Y4 )  )
( or ( <= ( + X5 31 ) X6 )  ( <= ( + X6 55 ) X5 )  ( <= ( + Y5 60 ) Y6 )  ( <= ( + Y6 48 ) Y5 )  )
( or ( <= ( + X5 31 ) X7 )  ( <= ( + X7 11 ) X5 )  ( <= ( + Y5 60 ) Y7 )  ( <= ( + Y7 54 ) Y5 )  )
( or ( <= ( + X5 31 ) X8 )  ( <= ( + X8 14 ) X5 )  ( <= ( + Y5 60 ) Y8 )  ( <= ( + Y8 61 ) Y5 )  )
( or ( <= ( + X6 55 ) X7 )  ( <= ( + X7 11 ) X6 )  ( <= ( + Y6 48 ) Y7 )  ( <= ( + Y7 54 ) Y6 )  )
( or ( <= ( + X6 55 ) X8 )  ( <= ( + X8 14 ) X6 )  ( <= ( + Y6 48 ) Y8 )  ( <= ( + Y8 61 ) Y6 )  )
( or ( <= ( + X7 11 ) X8 )  ( <= ( + X8 14 ) X7 )  ( <= ( + Y7 54 ) Y8 )  ( <= ( + Y8 61 ) Y7 )  )
( >= X0 0)
( <= ( + X0 100) Z)
( >= Y0 0)
( <= ( + Y0 65 ) 100)
( >= X1 0)
( <= ( + X1 100) Z)
( >= Y1 0)
( <= ( + Y1 70 ) 100)
( >= X2 0)
( <= ( + X2 25) Z)
( >= Y2 0)
( <= ( + Y2 67 ) 100)
( >= X3 0)
( <= ( + X3 98) Z)
( >= Y3 0)
( <= ( + Y3 94 ) 100)
( >= X4 0)
( <= ( + X4 3) Z)
( >= Y4 0)
( <= ( + Y4 89 ) 100)
( >= X5 0)
( <= ( + X5 31) Z)
( >= Y5 0)
( <= ( + Y5 60 ) 100)
( >= X6 0)
( <= ( + X6 55) Z)
( >= Y6 0)
( <= ( + Y6 48 ) 100)
( >= X7 0)
( <= ( + X7 11) Z)
( >= Y7 0)
( <= ( + Y7 54 ) 100)
( >= X8 0)
( <= ( + X8 14) Z)
( >= Y8 0)
( <= ( + Y8 61 ) 100)
) )
)(=> $phi $goal))))